
Gurobi 8.1.0 (win64, Python) logging started 03/07/19 11:09:31

Academic license - for non-commercial use only
Optimize a model with 70 rows, 13971 columns and 125206 nonzeros
Coefficient statistics:
  Matrix range     [1e+00, 7e+00]
  Objective range  [1e+01, 1e+03]
  Bounds range     [0e+00, 0e+00]
  RHS range        [1e+00, 1e+01]

Concurrent LP optimizer: dual simplex and barrier
Showing barrier log only...

Presolve time: 0.09s
Presolved: 70 rows, 13971 columns, 125206 nonzeros

Ordering time: 0.00s

Barrier performed 0 iterations in 0.16 seconds
Barrier solve interrupted - model solved by another algorithm


Solved with dual simplex
Solved in 33 iterations and 0.26 seconds
Optimal objective  3.862400000e+04
Optimize a model with 70 rows, 13971 columns and 125206 nonzeros
Coefficient statistics:
  Matrix range     [1e+00, 7e+00]
  Objective range  [1e+01, 1e+03]
  Bounds range     [0e+00, 0e+00]
  RHS range        [1e+00, 1e+01]

Concurrent LP optimizer: dual simplex and barrier
Showing barrier log only...

Presolve time: 0.17s
Presolved: 70 rows, 13971 columns, 125206 nonzeros

Ordering time: 0.00s

Barrier performed 0 iterations in 0.25 seconds
Barrier solve interrupted - model solved by another algorithm


Solved with dual simplex
Solved in 33 iterations and 0.33 seconds
Optimal objective  3.862400000e+04
Optimize a model with 70 rows, 13971 columns and 125206 nonzeros
Coefficient statistics:
  Matrix range     [1e+00, 7e+00]
  Objective range  [1e+01, 1e+03]
  Bounds range     [0e+00, 0e+00]
  RHS range        [1e+00, 1e+01]

Concurrent LP optimizer: dual simplex and barrier
Showing barrier log only...

Presolve time: 0.20s
Presolved: 70 rows, 13971 columns, 125206 nonzeros

Ordering time: 0.00s

Barrier performed 0 iterations in 0.28 seconds
Barrier solve interrupted - model solved by another algorithm


Solved with dual simplex
Solved in 33 iterations and 0.36 seconds
Optimal objective  3.862400000e+04
Optimize a model with 70 rows, 13971 columns and 125206 nonzeros
Coefficient statistics:
  Matrix range     [1e+00, 7e+00]
  Objective range  [1e+01, 1e+03]
  Bounds range     [0e+00, 0e+00]
  RHS range        [1e+00, 1e+01]

Concurrent LP optimizer: dual simplex and barrier
Showing barrier log only...

Presolve time: 0.17s
Presolved: 70 rows, 13971 columns, 125206 nonzeros

Ordering time: 0.00s

Barrier performed 0 iterations in 0.25 seconds
Barrier solve interrupted - model solved by another algorithm


Solved with dual simplex
Solved in 33 iterations and 0.33 seconds
Optimal objective  3.862400000e+04
Optimize a model with 70 rows, 13971 columns and 125206 nonzeros
Coefficient statistics:
  Matrix range     [1e+00, 7e+00]
  Objective range  [1e+01, 1e+03]
  Bounds range     [0e+00, 0e+00]
  RHS range        [1e+00, 1e+01]

Concurrent LP optimizer: dual simplex and barrier
Showing barrier log only...

Presolve time: 0.18s
Presolved: 70 rows, 13971 columns, 125206 nonzeros

Ordering time: 0.00s

Barrier performed 0 iterations in 0.24 seconds
Barrier solve interrupted - model solved by another algorithm


Solved with dual simplex
Solved in 33 iterations and 0.32 seconds
Optimal objective  3.862400000e+04
Optimize a model with 70 rows, 13971 columns and 125206 nonzeros
Coefficient statistics:
  Matrix range     [1e+00, 7e+00]
  Objective range  [1e+01, 1e+03]
  Bounds range     [0e+00, 0e+00]
  RHS range        [1e+00, 1e+01]

Concurrent LP optimizer: dual simplex and barrier
Showing barrier log only...

Presolve time: 0.03s
Presolved: 70 rows, 13971 columns, 125206 nonzeros

Ordering time: 0.00s

Barrier statistics:
 AA' NZ     : 1.601e+03
 Factor NZ  : 2.337e+03 (roughly 6 MBytes of memory)
 Factor Ops : 1.020e+05 (less than 1 second per iteration)
 Threads    : 3

Barrier performed 0 iterations in 0.05 seconds
Barrier solve interrupted - model solved by another algorithm


Solved with dual simplex
Solved in 33 iterations and 0.05 seconds
Optimal objective  3.862400000e+04
Optimize a model with 70 rows, 13971 columns and 125206 nonzeros
Coefficient statistics:
  Matrix range     [1e+00, 7e+00]
  Objective range  [1e+01, 1e+03]
  Bounds range     [0e+00, 0e+00]
  RHS range        [1e+00, 1e+01]

Concurrent LP optimizer: dual simplex and barrier
Showing barrier log only...

Presolve time: 0.03s
Presolved: 70 rows, 13971 columns, 125206 nonzeros

Ordering time: 0.00s

Barrier statistics:
 AA' NZ     : 1.601e+03
 Factor NZ  : 2.337e+03 (roughly 6 MBytes of memory)
 Factor Ops : 1.020e+05 (less than 1 second per iteration)
 Threads    : 3

Barrier performed 0 iterations in 0.05 seconds
Barrier solve interrupted - model solved by another algorithm


Solved with dual simplex
Solved in 33 iterations and 0.05 seconds
Optimal objective  3.862400000e+04
Optimize a model with 70 rows, 13971 columns and 125206 nonzeros
Coefficient statistics:
  Matrix range     [1e+00, 7e+00]
  Objective range  [1e+01, 1e+03]
  Bounds range     [0e+00, 0e+00]
  RHS range        [1e+00, 1e+01]

Concurrent LP optimizer: dual simplex and barrier
Showing barrier log only...

Presolve time: 0.03s
Presolved: 70 rows, 13971 columns, 125206 nonzeros

Ordering time: 0.00s

Barrier statistics:
 AA' NZ     : 1.601e+03
 Factor NZ  : 2.337e+03 (roughly 6 MBytes of memory)
 Factor Ops : 1.020e+05 (less than 1 second per iteration)
 Threads    : 3

Barrier performed 0 iterations in 0.05 seconds
Barrier solve interrupted - model solved by another algorithm


Solved with dual simplex
Solved in 33 iterations and 0.05 seconds
Optimal objective  3.862400000e+04
Optimize a model with 70 rows, 13971 columns and 125206 nonzeros
Coefficient statistics:
  Matrix range     [1e+00, 7e+00]
  Objective range  [1e+01, 1e+03]
  Bounds range     [0e+00, 0e+00]
  RHS range        [1e+00, 1e+01]

Concurrent LP optimizer: dual simplex and barrier
Showing barrier log only...

Presolve time: 0.03s
Presolved: 70 rows, 13971 columns, 125206 nonzeros

Ordering time: 0.00s

Barrier statistics:
 AA' NZ     : 1.601e+03
 Factor NZ  : 2.337e+03 (roughly 6 MBytes of memory)
 Factor Ops : 1.020e+05 (less than 1 second per iteration)
 Threads    : 3

Barrier performed 0 iterations in 0.05 seconds
Barrier solve interrupted - model solved by another algorithm


Solved with dual simplex
Solved in 33 iterations and 0.05 seconds
Optimal objective  3.862400000e+04
Optimize a model with 70 rows, 13971 columns and 125206 nonzeros
Coefficient statistics:
  Matrix range     [1e+00, 7e+00]
  Objective range  [1e+01, 1e+03]
  Bounds range     [0e+00, 0e+00]
  RHS range        [1e+00, 1e+01]

Concurrent LP optimizer: dual simplex and barrier
Showing barrier log only...

Presolve time: 0.03s
Presolved: 70 rows, 13971 columns, 125206 nonzeros

Ordering time: 0.00s

Barrier statistics:
 AA' NZ     : 1.601e+03
 Factor NZ  : 2.337e+03 (roughly 6 MBytes of memory)
 Factor Ops : 1.020e+05 (less than 1 second per iteration)
 Threads    : 3

Barrier performed 0 iterations in 0.06 seconds
Barrier solve interrupted - model solved by another algorithm


Solved with dual simplex
Solved in 33 iterations and 0.06 seconds
Optimal objective  3.862400000e+04
Optimize a model with 70 rows, 13971 columns and 125206 nonzeros
Coefficient statistics:
  Matrix range     [1e+00, 7e+00]
  Objective range  [1e+01, 1e+03]
  Bounds range     [0e+00, 0e+00]
  RHS range        [1e+00, 1e+01]

Concurrent LP optimizer: dual simplex and barrier
Showing barrier log only...

Presolve time: 0.02s
Presolved: 70 rows, 13971 columns, 125206 nonzeros

Ordering time: 0.00s

Barrier statistics:
 AA' NZ     : 1.601e+03
 Factor NZ  : 2.337e+03 (roughly 6 MBytes of memory)
 Factor Ops : 1.020e+05 (less than 1 second per iteration)
 Threads    : 3

Barrier performed 0 iterations in 0.04 seconds
Barrier solve interrupted - model solved by another algorithm


Solved with dual simplex
Solved in 33 iterations and 0.04 seconds
Optimal objective  3.862400000e+04
Optimize a model with 70 rows, 13971 columns and 125206 nonzeros
Coefficient statistics:
  Matrix range     [1e+00, 7e+00]
  Objective range  [1e+01, 1e+03]
  Bounds range     [0e+00, 0e+00]
  RHS range        [1e+00, 1e+01]

Concurrent LP optimizer: dual simplex and barrier
Showing barrier log only...

Presolve time: 0.03s
Presolved: 70 rows, 13971 columns, 125206 nonzeros

Ordering time: 0.00s

Barrier statistics:
 AA' NZ     : 1.601e+03
 Factor NZ  : 2.337e+03 (roughly 6 MBytes of memory)
 Factor Ops : 1.020e+05 (less than 1 second per iteration)
 Threads    : 3

Barrier performed 0 iterations in 0.05 seconds
Barrier solve interrupted - model solved by another algorithm


Solved with dual simplex
Solved in 33 iterations and 0.05 seconds
Optimal objective  3.862400000e+04
Optimize a model with 70 rows, 13971 columns and 125206 nonzeros
Coefficient statistics:
  Matrix range     [1e+00, 7e+00]
  Objective range  [1e+01, 1e+03]
  Bounds range     [0e+00, 0e+00]
  RHS range        [1e+00, 1e+01]

Concurrent LP optimizer: dual simplex and barrier
Showing barrier log only...

Presolve time: 0.03s
Presolved: 70 rows, 13971 columns, 125206 nonzeros

Ordering time: 0.00s

Barrier statistics:
 AA' NZ     : 1.601e+03
 Factor NZ  : 2.337e+03 (roughly 6 MBytes of memory)
 Factor Ops : 1.020e+05 (less than 1 second per iteration)
 Threads    : 3

Barrier performed 0 iterations in 0.05 seconds
Barrier solve interrupted - model solved by another algorithm


Solved with dual simplex
Solved in 33 iterations and 0.05 seconds
Optimal objective  3.862400000e+04

Gurobi 8.1.0 (win64, Python) logging started 03/08/19 12:12:01

Academic license - for non-commercial use only
Optimize a model with 70 rows, 13971 columns and 125206 nonzeros
Variable types: 13941 continuous, 30 integer (0 binary)
Coefficient statistics:
  Matrix range     [1e+00, 7e+00]
  Objective range  [1e+01, 1e+03]
  Bounds range     [0e+00, 0e+00]
  RHS range        [1e+00, 1e+01]
Found heuristic solution: objective 661948.00000
Presolve removed 2 rows and 361 columns
Presolve time: 0.14s
Presolved: 68 rows, 13610 columns, 121324 nonzeros
Variable types: 13581 continuous, 29 integer (0 binary)

Root relaxation: objective 3.862400e+04, 83 iterations, 0.02 seconds

    Nodes    |    Current Node    |     Objective Bounds      |     Work
 Expl Unexpl |  Obj  Depth IntInf | Incumbent    BestBd   Gap | It/Node Time

     0     0 38624.0000    0    4 661948.000 38624.0000  94.2%     -    0s
H    0     0                    40624.000000 38624.0000  4.92%     -    0s
H    0     0                    39625.000000 38624.0000  2.53%     -    0s
H    0     0                    38634.000000 38624.0000  0.03%     -    0s

Cutting planes:
  Gomory: 2

Explored 1 nodes (83 simplex iterations) in 0.64 seconds
Thread count was 8 (of 8 available processors)

Solution count 4: 38634 39625 40624 661948 

Optimal solution found (tolerance 1.00e-04)
Best objective 3.863400000000e+04, best bound 3.863300000000e+04, gap 0.0026%

Gurobi 8.1.0 (win64, Python) logging started 03/10/19 15:22:47

Academic license - for non-commercial use only
Optimize a model with 70 rows, 13971 columns and 125206 nonzeros
Variable types: 13941 continuous, 30 integer (0 binary)
Coefficient statistics:
  Matrix range     [1e+00, 7e+00]
  Objective range  [1e+01, 1e+03]
  Bounds range     [0e+00, 0e+00]
  RHS range        [1e+00, 1e+01]
Found heuristic solution: objective 661948.00000
Presolve removed 2 rows and 361 columns
Presolve time: 0.17s
Presolved: 68 rows, 13610 columns, 121324 nonzeros
Variable types: 13581 continuous, 29 integer (0 binary)

Root relaxation: objective 3.862400e+04, 83 iterations, 0.04 seconds

    Nodes    |    Current Node    |     Objective Bounds      |     Work
 Expl Unexpl |  Obj  Depth IntInf | Incumbent    BestBd   Gap | It/Node Time

     0     0 38624.0000    0    4 661948.000 38624.0000  94.2%     -    0s
H    0     0                    40624.000000 38624.0000  4.92%     -    0s
H    0     0                    39625.000000 38624.0000  2.53%     -    0s
H    0     0                    38634.000000 38624.0000  0.03%     -    0s

Cutting planes:
  Gomory: 2

Explored 1 nodes (83 simplex iterations) in 0.91 seconds
Thread count was 8 (of 8 available processors)

Solution count 4: 38634 39625 40624 661948 

Optimal solution found (tolerance 1.00e-04)
Best objective 3.863400000000e+04, best bound 3.863300000000e+04, gap 0.0026%
Optimize a model with 70 rows, 13971 columns and 148 nonzeros
Variable types: 13941 continuous, 30 integer (0 binary)
Coefficient statistics:
  Matrix range     [1e+00, 7e+00]
  Objective range  [1e+01, 1e+03]
  Bounds range     [0e+00, 0e+00]
  RHS range        [1e+00, 1e+01]
Found heuristic solution: objective 59650.000000
Presolve removed 70 rows and 13971 columns
Presolve time: 0.01s
Presolve: All rows and columns removed

Explored 0 nodes (0 simplex iterations) in 0.27 seconds
Thread count was 1 (of 8 available processors)

Solution count 1: 59650 

Optimal solution found (tolerance 1.00e-04)
Best objective 5.965000000000e+04, best bound 5.965000000000e+04, gap 0.0000%
Optimize a model with 70 rows, 13971 columns and 148 nonzeros
Coefficient statistics:
  Matrix range     [1e+00, 7e+00]
  Objective range  [1e+01, 1e+03]
  Bounds range     [0e+00, 0e+00]
  RHS range        [1e+00, 1e+01]
Presolve removed 70 rows and 13971 columns
Presolve time: 0.18s
Presolve: All rows and columns removed
Iteration    Objective       Primal Inf.    Dual Inf.      Time
       0    5.9650000e+04   0.000000e+00   0.000000e+00      0s

Solved in 0 iterations and 0.28 seconds
Optimal objective  5.965000000e+04
Optimize a model with 70 rows, 13971 columns and 148 nonzeros
Variable types: 13941 continuous, 30 integer (0 binary)
Coefficient statistics:
  Matrix range     [1e+00, 7e+00]
  Objective range  [1e+01, 1e+03]
  Bounds range     [0e+00, 0e+00]
  RHS range        [1e+00, 1e+01]
Found heuristic solution: objective 59650.000000
Presolve removed 70 rows and 13971 columns
Presolve time: 0.00s
Presolve: All rows and columns removed

Explored 0 nodes (0 simplex iterations) in 0.18 seconds
Thread count was 1 (of 8 available processors)

Solution count 1: 59650 

Optimal solution found (tolerance 1.00e-04)
Best objective 5.965000000000e+04, best bound 5.965000000000e+04, gap 0.0000%
Optimize a model with 70 rows, 13971 columns and 148 nonzeros
Variable types: 13941 continuous, 30 integer (0 binary)
Coefficient statistics:
  Matrix range     [1e+00, 7e+00]
  Objective range  [1e+01, 1e+03]
  Bounds range     [0e+00, 0e+00]
  RHS range        [1e+00, 1e+01]
Found heuristic solution: objective 59650.000000
Presolve removed 70 rows and 13971 columns
Presolve time: 0.00s
Presolve: All rows and columns removed

Explored 0 nodes (0 simplex iterations) in 0.24 seconds
Thread count was 1 (of 8 available processors)

Solution count 1: 59650 

Optimal solution found (tolerance 1.00e-04)
Best objective 5.965000000000e+04, best bound 5.965000000000e+04, gap 0.0000%
Optimize a model with 70 rows, 13971 columns and 148 nonzeros
Variable types: 13941 continuous, 30 integer (0 binary)
Coefficient statistics:
  Matrix range     [1e+00, 7e+00]
  Objective range  [1e+01, 1e+03]
  Bounds range     [0e+00, 0e+00]
  RHS range        [1e+00, 1e+01]
Found heuristic solution: objective 59650.000000
Presolve removed 70 rows and 13971 columns
Presolve time: 0.01s
Presolve: All rows and columns removed

Explored 0 nodes (0 simplex iterations) in 0.23 seconds
Thread count was 1 (of 8 available processors)

Solution count 1: 59650 

Optimal solution found (tolerance 1.00e-04)
Best objective 5.965000000000e+04, best bound 5.965000000000e+04, gap 0.0000%
